v1 = 5;
v2 = 5;
vertexWeights = [-45, -45, -45, -45, -45, -45, -90, -16.347782724271816, -90, -90, -90, -45, -90, -90, -43.982951242498494, -90, -28.160255680657446, -45, -41.42764777295472, -90, -90, -71.61180070351534, -90, -45, -90, -90, -75.97697019492156, -90, -47.38143096192854, -45, -21.02379604162864, -90, -90, -38.18376618407357, -90];
edgeWeights = [| 0, 0, 0, 0, -15.0, 0, 0, 0, 0, 0, -15.0, 0, 0, 0, 0, 0, -15.0, 0, 0, 0, 0, 0, -15.0, 0, 0, 0, 0, 0, -15.0, 0, 0, 0, 0, 0, -15.0
| 0, 0, 0, 0, 0, 0, 0, 0, 0, 0, 0, 0, 0, 0, 0, 0, 0, 0, 0, 0, 0, 0, 0, 0, 0, 0, 0, 0, 0, 0, 0, 0, 0, 0, 0
| 0, 0, 0, -15.0, 0, 0, 0, 0, 0, -15.0, 0, 0, 0, 0, 0, -15.0, 0, 0, 0, 0, 0, -15.0, 0, 0, 0, 0, 0, -15.0, 0, 0, 0, 0, 0, -15.0, 0
| 0, 0, -15.0, 0, 0, 0, 0, 0, -15.0, 0, 0, 0, 0, 0, -15.0, 0, 0, 0, 0, 0, -15.0, 0, 0, 0, 0, 0, -15.0, 0, 0, 0, 0, 0, -15.0, 0, 0
| -15.0, 0, 0, 0, 0, 0, -15.0, 0, 0, 0, 0, 0, -15.0, 0, 0, 0, 0, 0, -15.0, 0, 0, 0, 0, 0, -15.0, 0, 0, 0, 0, 0, -15.0, 0, 0, 0, 0
| 0, 0, 0, 0, 0, 0, 0, 0, 0, 0, 0, 0, 0, 0, 0, 0, 0, 0, 0, 0, 0, 0, 0, 0, 0, 0, 0, 0, 0, 0, 0, 0, 0, 0, 0
| 0, -0.0, -0.0, -0.0, -15.0, 0, 0, 0, 0, 0, 0, -0.0, 0, 0, 0, 0, -15.0, -0.0, 0, 0, 0, 0, -15.0, -0.0, 0, 0, 0, 0, -15.0, -0.0, 0, 0, 0, 0, -15.0
| -0.0, 0, -0.0, -0.0, -0.0, 0, 0, 0, 0, 0, 0, -0.0, 0, 0, 0, 0, 0, -0.0, 0, 0, 0, 0, 0, -0.0, 0, 0, 0, 0, 0, -0.0, 0, 0, 0, 0, 0
| -0.0, -0.0, 0, -15.0, -0.0, 0, 0, 0, 0, 0, 0, -0.0, 0, 0, 0, -15.0, 0, -0.0, 0, 0, 0, -15.0, 0, -0.0, 0, 0, 0, -15.0, 0, -0.0, 0, 0, 0, -15.0, 0
| -0.0, -0.0, -15.0, 0, -0.0, 0, 0, 0, 0, 0, 0, -0.0, 0, 0, -15.0, 0, 0, -0.0, 0, 0, -15.0, 0, 0, -0.0, 0, 0, -15.0, 0, 0, -0.0, 0, 0, -15.0, 0, 0
| -15.0, -0.0, -0.0, -0.0, 0, 0, 0, 0, 0, 0, 0, -0.0, -15.0, 0, 0, 0, 0, -0.0, -15.0, 0, 0, 0, 0, -0.0, -15.0, 0, 0, 0, 0, -0.0, -15.0, 0, 0, 0, 0
| 0, 0, 0, 0, 0, 0, 0, 0, 0, 0, 0, 0, 0, 0, 0, 0, 0, 0, 0, 0, 0, 0, 0, 0, 0, 0, 0, 0, 0, -15.0, -15.0, -15.0, -15.0, -15.0, -15.0
| 0, -0.0, -0.0, -0.0, -15.0, -0.0, 0, 0, 0, 0, -15.0, 0, 0, 0, 0, 0, 0, -0.0, 0, 0, 0, 0, -15.0, -0.0, 0, 0, 0, 0, -15.0, -15.0, 0, -0.0, -0.0, -0.0, -0.0
| -0.0, 0, -0.0, -0.0, -0.0, -0.0, 0, 0, 0, 0, 0, 0, 0, 0, 0, 0, 0, -0.0, 0, 0, 0, 0, 0, -0.0, 0, 0, 0, 0, 0, -15.0, -0.0, 0, -0.0, -0.0, -15.0
| -0.0, -0.0, 0, -15.0, -0.0, -0.0, 0, 0, 0, -15.0, 0, 0, 0, 0, 0, 0, 0, -0.0, 0, 0, 0, -15.0, 0, -0.0, 0, 0, 0, -15.0, 0, -15.0, -0.0, -0.0, 0, -0.0, -15.0
| -0.0, -0.0, -15.0, 0, -0.0, -0.0, 0, 0, -15.0, 0, 0, 0, 0, 0, 0, 0, 0, -0.0, 0, 0, -15.0, 0, 0, -0.0, 0, 0, -15.0, 0, 0, -15.0, -0.0, -0.0, -0.0, 0, -15.0
| -15.0, -0.0, -0.0, -0.0, 0, -0.0, -15.0, 0, 0, 0, 0, 0, 0, 0, 0, 0, 0, -0.0, -15.0, 0, 0, 0, 0, -0.0, -15.0, 0, 0, 0, 0, -15.0, -0.0, -0.0, -0.0, -0.0, 0
| 0, 0, 0, 0, 0, 0, 0, 0, 0, 0, 0, 0, 0, 0, 0, 0, 0, 0, 0, 0, 0, 0, 0, -15.0, -15.0, -15.0, -15.0, -15.0, -15.0, 0, 0, 0, 0, 0, 0
| 0, -0.0, -0.0, -0.0, -15.0, -0.0, 0, 0, 0, 0, -15.0, -0.0, 0, 0, 0, 0, -15.0, 0, 0, 0, 0, 0, 0, -15.0, 0, -0.0, -0.0, -15.0, -0.0, -0.0, 0, 0, 0, 0, -15.0
| -0.0, 0, -0.0, -0.0, -0.0, -0.0, 0, 0, 0, 0, 0, -0.0, 0, 0, 0, 0, 0, 0, 0, 0, 0, 0, 0, -15.0, -0.0, 0, -0.0, -15.0, -0.0, -0.0, 0, 0, 0, 0, 0
| -0.0, -0.0, 0, -15.0, -0.0, -0.0, 0, 0, 0, -15.0, 0, -0.0, 0, 0, 0, -15.0, 0, 0, 0, 0, 0, 0, 0, -15.0, -0.0, -0.0, 0, -0.0, -0.0, -0.0, 0, 0, 0, -15.0, 0
| -0.0, -0.0, -15.0, 0, -0.0, -0.0, 0, 0, -15.0, 0, 0, -0.0, 0, 0, -15.0, 0, 0, 0, 0, 0, 0, 0, 0, -15.0, -0.0, -0.0, -0.0, 0, -0.0, -0.0, 0, 0, -15.0, 0, 0
| -15.0, -0.0, -0.0, -0.0, 0, -0.0, -15.0, 0, 0, 0, 0, -0.0, -15.0, 0, 0, 0, 0, 0, 0, 0, 0, 0, 0, -15.0, -0.0, -0.0, -0.0, -15.0, 0, -0.0, -15.0, 0, 0, 0, 0
| 0, 0, 0, 0, 0, 0, 0, 0, 0, 0, 0, 0, 0, 0, 0, 0, 0, -15.0, -15.0, -15.0, -15.0, -15.0, -15.0, 0, 0, 0, 0, 0, 0, 0, 0, 0, 0, 0, 0
| 0, -0.0, -0.0, -0.0, -15.0, -0.0, 0, 0, 0, 0, -15.0, -0.0, 0, 0, 0, 0, -15.0, -15.0, 0, -0.0, -15.0, -0.0, -0.0, 0, 0, 0, 0, 0, 0, -0.0, 0, 0, 0, 0, -15.0
| -0.0, 0, -0.0, -0.0, -0.0, -0.0, 0, 0, 0, 0, 0, -0.0, 0, 0, 0, 0, 0, -15.0, -0.0, 0, -15.0, -0.0, -0.0, 0, 0, 0, 0, 0, 0, -0.0, 0, 0, 0, 0, 0
| -0.0, -0.0, 0, -15.0, -0.0, -0.0, 0, 0, 0, -15.0, 0, -0.0, 0, 0, 0, -15.0, 0, -15.0, -0.0, -0.0, 0, -0.0, -0.0, 0, 0, 0, 0, 0, 0, -0.0, 0, 0, 0, -15.0, 0
| -0.0, -0.0, -15.0, 0, -0.0, -0.0, 0, 0, -15.0, 0, 0, -0.0, 0, 0, -15.0, 0, 0, -15.0, -0.0, -0.0, -0.0, 0, -0.0, 0, 0, 0, 0, 0, 0, -0.0, 0, 0, -15.0, 0, 0
| -15.0, -0.0, -0.0, -0.0, 0, -0.0, -15.0, 0, 0, 0, 0, -0.0, -15.0, 0, 0, 0, 0, -15.0, -0.0, -0.0, -15.0, -0.0, 0, 0, 0, 0, 0, 0, 0, -0.0, -15.0, 0, 0, 0, 0
| 0, 0, 0, 0, 0, 0, 0, 0, 0, 0, 0, -15.0, -15.0, -15.0, -15.0, -15.0, -15.0, 0, 0, 0, 0, 0, 0, 0, 0, 0, 0, 0, 0, 0, 0, 0, 0, 0, 0
| 0, -0.0, -0.0, -0.0, -15.0, -0.0, 0, 0, 0, 0, -15.0, -15.0, 0, -15.0, -0.0, -0.0, -0.0, -0.0, 0, 0, 0, 0, -15.0, -0.0, 0, 0, 0, 0, -15.0, 0, 0, 0, 0, 0, 0
| -0.0, 0, -0.0, -0.0, -0.0, -0.0, 0, 0, 0, 0, 0, -15.0, -0.0, 0, -0.0, -0.0, -0.0, -0.0, 0, 0, 0, 0, 0, -0.0, 0, 0, 0, 0, 0, 0, 0, 0, 0, 0, 0
| -0.0, -0.0, 0, -15.0, -0.0, -0.0, 0, 0, 0, -15.0, 0, -15.0, -0.0, -15.0, 0, -0.0, -0.0, -0.0, 0, 0, 0, -15.0, 0, -0.0, 0, 0, 0, -15.0, 0, 0, 0, 0, 0, 0, 0
| -0.0, -0.0, -15.0, 0, -0.0, -0.0, 0, 0, -15.0, 0, 0, -15.0, -0.0, -15.0, -0.0, 0, -0.0, -0.0, 0, 0, -15.0, 0, 0, -0.0, 0, 0, -15.0, 0, 0, 0, 0, 0, 0, 0, 0
| -15.0, -0.0, -0.0, -0.0, 0, -0.0, -15.0, 0, 0, 0, 0, -15.0, -0.0, -15.0, -0.0, -0.0, 0, -0.0, -15.0, 0, 0, 0, 0, -0.0, -15.0, 0, 0, 0, 0, 0, 0, 0, 0, 0, 0 |];
adjacent = [| 0, 1, 1, 1, 1, 1, 0, 1, 1, 1, 1, 1, 0, 1, 1, 1, 1, 1, 0, 1, 1, 1, 1, 1, 0, 1, 1, 1, 1, 1, 0, 1, 1, 1, 1
| 1, 0, 1, 1, 1, 1, 1, 0, 1, 1, 1, 1, 1, 0, 1, 1, 1, 1, 1, 0, 1, 1, 1, 1, 1, 0, 1, 1, 1, 1, 1, 0, 1, 1, 1
| 1, 1, 0, 1, 1, 1, 1, 1, 0, 1, 1, 1, 1, 1, 0, 1, 1, 1, 1, 1, 0, 1, 1, 1, 1, 1, 0, 1, 1, 1, 1, 1, 0, 1, 1
| 1, 1, 1, 0, 1, 1, 1, 1, 1, 0, 1, 1, 1, 1, 1, 0, 1, 1, 1, 1, 1, 0, 1, 1, 1, 1, 1, 0, 1, 1, 1, 1, 1, 0, 1
| 1, 1, 1, 1, 0, 1, 1, 1, 1, 1, 0, 1, 1, 1, 1, 1, 0, 1, 1, 1, 1, 1, 0, 1, 1, 1, 1, 1, 0, 1, 1, 1, 1, 1, 0
| 1, 1, 1, 1, 1, 0, 0, 0, 0, 0, 0, 1, 1, 1, 1, 1, 1, 1, 1, 1, 1, 1, 1, 1, 1, 1, 1, 1, 1, 1, 1, 1, 1, 1, 1
| 0, 1, 1, 1, 1, 0, 0, 0, 0, 0, 0, 1, 0, 1, 1, 1, 1, 1, 0, 1, 1, 1, 1, 1, 0, 1, 1, 1, 1, 1, 0, 1, 1, 1, 1
| 1, 0, 1, 1, 1, 0, 0, 0, 0, 0, 0, 1, 1, 0, 1, 1, 1, 1, 1, 0, 1, 1, 1, 1, 1, 0, 1, 1, 1, 1, 1, 0, 1, 1, 1
| 1, 1, 0, 1, 1, 0, 0, 0, 0, 0, 0, 1, 1, 1, 0, 1, 1, 1, 1, 1, 0, 1, 1, 1, 1, 1, 0, 1, 1, 1, 1, 1, 0, 1, 1
| 1, 1, 1, 0, 1, 0, 0, 0, 0, 0, 0, 1, 1, 1, 1, 0, 1, 1, 1, 1, 1, 0, 1, 1, 1, 1, 1, 0, 1, 1, 1, 1, 1, 0, 1
| 1, 1, 1, 1, 0, 0, 0, 0, 0, 0, 0, 1, 1, 1, 1, 1, 0, 1, 1, 1, 1, 1, 0, 1, 1, 1, 1, 1, 0, 1, 1, 1, 1, 1, 0
| 1, 1, 1, 1, 1, 1, 1, 1, 1, 1, 1, 0, 0, 0, 0, 0, 0, 1, 1, 1, 1, 1, 1, 1, 1, 1, 1, 1, 1, 1, 1, 1, 1, 1, 1
| 0, 1, 1, 1, 1, 1, 0, 1, 1, 1, 1, 0, 0, 0, 0, 0, 0, 1, 0, 1, 1, 1, 1, 1, 0, 1, 1, 1, 1, 1, 0, 1, 1, 1, 1
| 1, 0, 1, 1, 1, 1, 1, 0, 1, 1, 1, 0, 0, 0, 0, 0, 0, 1, 1, 0, 1, 1, 1, 1, 1, 0, 1, 1, 1, 1, 1, 0, 1, 1, 1
| 1, 1, 0, 1, 1, 1, 1, 1, 0, 1, 1, 0, 0, 0, 0, 0, 0, 1, 1, 1, 0, 1, 1, 1, 1, 1, 0, 1, 1, 1, 1, 1, 0, 1, 1
| 1, 1, 1, 0, 1, 1, 1, 1, 1, 0, 1, 0, 0, 0, 0, 0, 0, 1, 1, 1, 1, 0, 1, 1, 1, 1, 1, 0, 1, 1, 1, 1, 1, 0, 1
| 1, 1, 1, 1, 0, 1, 1, 1, 1, 1, 0, 0, 0, 0, 0, 0, 0, 1, 1, 1, 1, 1, 0, 1, 1, 1, 1, 1, 0, 1, 1, 1, 1, 1, 0
| 1, 1, 1, 1, 1, 1, 1, 1, 1, 1, 1, 1, 1, 1, 1, 1, 1, 0, 0, 0, 0, 0, 0, 1, 1, 1, 1, 1, 1, 1, 1, 1, 1, 1, 1
| 0, 1, 1, 1, 1, 1, 0, 1, 1, 1, 1, 1, 0, 1, 1, 1, 1, 0, 0, 0, 0, 0, 0, 1, 0, 1, 1, 1, 1, 1, 0, 1, 1, 1, 1
| 1, 0, 1, 1, 1, 1, 1, 0, 1, 1, 1, 1, 1, 0, 1, 1, 1, 0, 0, 0, 0, 0, 0, 1, 1, 0, 1, 1, 1, 1, 1, 0, 1, 1, 1
| 1, 1, 0, 1, 1, 1, 1, 1, 0, 1, 1, 1, 1, 1, 0, 1, 1, 0, 0, 0, 0, 0, 0, 1, 1, 1, 0, 1, 1, 1, 1, 1, 0, 1, 1
| 1, 1, 1, 0, 1, 1, 1, 1, 1, 0, 1, 1, 1, 1, 1, 0, 1, 0, 0, 0, 0, 0, 0, 1, 1, 1, 1, 0, 1, 1, 1, 1, 1, 0, 1
| 1, 1, 1, 1, 0, 1, 1, 1, 1, 1, 0, 1, 1, 1, 1, 1, 0, 0, 0, 0, 0, 0, 0, 1, 1, 1, 1, 1, 0, 1, 1, 1, 1, 1, 0
| 1, 1, 1, 1, 1, 1, 1, 1, 1, 1, 1, 1, 1, 1, 1, 1, 1, 1, 1, 1, 1, 1, 1, 0, 0, 0, 0, 0, 0, 1, 1, 1, 1, 1, 1
| 0, 1, 1, 1, 1, 1, 0, 1, 1, 1, 1, 1, 0, 1, 1, 1, 1, 1, 0, 1, 1, 1, 1, 0, 0, 0, 0, 0, 0, 1, 0, 1, 1, 1, 1
| 1, 0, 1, 1, 1, 1, 1, 0, 1, 1, 1, 1, 1, 0, 1, 1, 1, 1, 1, 0, 1, 1, 1, 0, 0, 0, 0, 0, 0, 1, 1, 0, 1, 1, 1
| 1, 1, 0, 1, 1, 1, 1, 1, 0, 1, 1, 1, 1, 1, 0, 1, 1, 1, 1, 1, 0, 1, 1, 0, 0, 0, 0, 0, 0, 1, 1, 1, 0, 1, 1
| 1, 1, 1, 0, 1, 1, 1, 1, 1, 0, 1, 1, 1, 1, 1, 0, 1, 1, 1, 1, 1, 0, 1, 0, 0, 0, 0, 0, 0, 1, 1, 1, 1, 0, 1
| 1, 1, 1, 1, 0, 1, 1, 1, 1, 1, 0, 1, 1, 1, 1, 1, 0, 1, 1, 1, 1, 1, 0, 0, 0, 0, 0, 0, 0, 1, 1, 1, 1, 1, 0
| 1, 1, 1, 1, 1, 1, 1, 1, 1, 1, 1, 1, 1, 1, 1, 1, 1, 1, 1, 1, 1, 1, 1, 1, 1, 1, 1, 1, 1, 0, 0, 0, 0, 0, 0
| 0, 1, 1, 1, 1, 1, 0, 1, 1, 1, 1, 1, 0, 1, 1, 1, 1, 1, 0, 1, 1, 1, 1, 1, 0, 1, 1, 1, 1, 0, 0, 0, 0, 0, 0
| 1, 0, 1, 1, 1, 1, 1, 0, 1, 1, 1, 1, 1, 0, 1, 1, 1, 1, 1, 0, 1, 1, 1, 1, 1, 0, 1, 1, 1, 0, 0, 0, 0, 0, 0
| 1, 1, 0, 1, 1, 1, 1, 1, 0, 1, 1, 1, 1, 1, 0, 1, 1, 1, 1, 1, 0, 1, 1, 1, 1, 1, 0, 1, 1, 0, 0, 0, 0, 0, 0
| 1, 1, 1, 0, 1, 1, 1, 1, 1, 0, 1, 1, 1, 1, 1, 0, 1, 1, 1, 1, 1, 0, 1, 1, 1, 1, 1, 0, 1, 0, 0, 0, 0, 0, 0
| 1, 1, 1, 1, 0, 1, 1, 1, 1, 1, 0, 1, 1, 1, 1, 1, 0, 1, 1, 1, 1, 1, 0, 1, 1, 1, 1, 1, 0, 0, 0, 0, 0, 0, 0 |];
